p edge 40 86 10
v 3 3 5 34
v 6 6 9 10 15 29 33
v 3 12 31 40
v 6 13 16 22 23 35 38
v 3 2 11 25
v 6 1 7 24 26 30 36
v 2 18 28
v 6 14 17 19 20 37 39
v 3 4 8 27
v 2 21 32
e 1 5
e 1 8
e 1 17
e 1 28
e 1 33
e 2 5
e 2 8
e 2 11
e 2 12
e 2 24
e 3 10
e 3 15
e 3 22
e 3 24
e 4 18
e 4 37
e 5 17
e 5 24
e 5 40
e 6 8
e 6 14
e 6 16
e 6 17
e 6 29
e 7 19
e 7 20
e 7 26
e 7 27
e 7 28
e 7 31
e 7 37
e 8 16
e 8 28
e 8 29
e 8 32
e 9 11
e 9 17
e 9 19
e 9 22
e 9 36
e 9 37
e 10 25
e 11 30
e 11 35
e 12 14
e 12 18
e 13 17
e 13 37
e 15 18
e 16 33
e 17 28
e 17 39
e 18 30
e 19 21
e 19 31
e 19 38
e 21 22
e 21 30
e 22 25
e 22 33
e 22 38
e 23 29
e 23 39
e 24 36
e 24 37
e 25 31
e 26 28
e 26 32
e 27 34
e 27 35
e 27 39
e 28 34
e 28 35
e 28 40
e 29 37
e 30 35
e 30 38
e 30 40
e 31 37
e 32 33
e 33 39
e 33 40
e 34 39
e 34 40
e 37 38
e 39 40
